c turning on binary mode checking
c parsing input formula with 202048 variables and 780990 clauses
c finished parsing, read 16440107 bytes from proof file
c detected empty clause; start verification via backward checking
c 11327 of 780990 clauses in core                            
c 12845 of 450914 lemmas in core using 84319 resolution steps
c 0 RAT lemmas in core; 699 redundant literals in core lemmas
s VERIFIED
c verification time: 2.192 seconds
